
Gurobi 10.0.3 (linux64, gurobi_cl) logging started Thu Nov  2 11:37:58 2023

Set parameter Username
Set parameter TimeLimit to value 3600
Set parameter LogFile to value "RCPSP_807.log"
Set parameter Threads to value 32
Academic license - for non-commercial use only - expires 2024-10-30
Using license file /home/jrivera6/gurobi-licenses/v1003/compute-0-35/gurobi.lic

Gurobi Optimizer version 10.0.3 build v10.0.3rc0 (linux64)
Copyright (c) 2023, Gurobi Optimization, LLC

Read MPS format model from file RCPSP_807.mps
Reading time = 0.13 seconds
RCPSP_807: 19662 rows, 7750 columns, 60956 nonzeros

CPU model: Intel(R) Xeon(R) Gold 6130 CPU @ 2.10GHz, instruction set [SSE2|AVX|AVX2|AVX512]
Thread count: 32 physical cores, 32 logical processors, using up to 32 threads

Optimize a model with 19662 rows, 7750 columns and 60956 nonzeros
Model fingerprint: 0x7fc44967
Variable types: 62 continuous, 7688 integer (7688 binary)
Coefficient statistics:
  Matrix range     [1e+00, 3e+02]
  Objective range  [1e+00, 1e+00]
  Bounds range     [1e+00, 1e+00]
  RHS range        [1e+00, 4e+02]
Presolve removed 9540 rows and 3601 columns
Presolve time: 4.38s
Presolved: 10122 rows, 4149 columns, 31876 nonzeros
Variable types: 61 continuous, 4088 integer (4088 binary)

Root relaxation: objective 6.600000e+01, 1440 iterations, 0.02 seconds (0.01 work units)

    Nodes    |    Current Node    |     Objective Bounds      |     Work
 Expl Unexpl |  Obj  Depth IntInf | Incumbent    BestBd   Gap | It/Node Time

     0     0   66.00000    0  219          -   66.00000      -     -    4s
     0     0   70.00000    0  151          -   70.00000      -     -    4s
H    0     0                      85.0000000   70.00000  17.6%     -    6s
     0     0   70.00000    0  426   85.00000   70.00000  17.6%     -    7s
     0     0   70.01434    0  381   85.00000   70.01434  17.6%     -    7s
     0     0   70.01434    0  381   85.00000   70.01434  17.6%     -    7s
     0     0   71.00000    0  151   85.00000   71.00000  16.5%     -   10s
     0     0   71.00643    0  147   85.00000   71.00643  16.5%     -   10s
     0     0   74.00000    0  221   85.00000   74.00000  12.9%     -   11s
     0     0   74.00000    0  248   85.00000   74.00000  12.9%     -   12s
     0     0   74.00000    0  242   85.00000   74.00000  12.9%     -   12s
     0     0   74.00000    0  365   85.00000   74.00000  12.9%     -   12s
     0     0   74.00000    0  359   85.00000   74.00000  12.9%     -   13s
     0     0   74.00000    0  358   85.00000   74.00000  12.9%     -   13s
     0     0   74.00000    0  400   85.00000   74.00000  12.9%     -   13s
     0     0   74.00000    0  386   85.00000   74.00000  12.9%     -   13s
     0     0   74.00000    0  319   85.00000   74.00000  12.9%     -   13s
     0     0   74.00000    0  354   85.00000   74.00000  12.9%     -   14s
     0     0   74.00000    0  338   85.00000   74.00000  12.9%     -   14s
     0     0   74.00000    0  337   85.00000   74.00000  12.9%     -   14s
     0     0   74.00000    0  380   85.00000   74.00000  12.9%     -   14s
     0     0   74.00000    0  356   85.00000   74.00000  12.9%     -   14s
     0     0   74.00000    0  383   85.00000   74.00000  12.9%     -   14s
     0     0   74.00000    0  423   85.00000   74.00000  12.9%     -   15s
     0     0   74.00000    0  381   85.00000   74.00000  12.9%     -   15s
     0     0   74.00000    0  354   85.00000   74.00000  12.9%     -   16s
     0     0   74.00000    0  397   85.00000   74.00000  12.9%     -   16s
     0     0   74.00000    0  397   85.00000   74.00000  12.9%     -   16s
     0     0   74.00000    0  391   85.00000   74.00000  12.9%     -   17s
     0     0   74.00000    0  403   85.00000   74.00000  12.9%     -   17s
     0     0   74.00000    0  421   85.00000   74.00000  12.9%     -   17s
     0     0   74.00000    0  437   85.00000   74.00000  12.9%     -   18s
     0     0   74.00000    0  416   85.00000   74.00000  12.9%     -   18s
     0     0   74.00000    0  358   85.00000   74.00000  12.9%     -   19s
     0     0   74.00000    0  399   85.00000   74.00000  12.9%     -   19s
     0     0   74.00000    0  382   85.00000   74.00000  12.9%     -   20s
     0     0   74.00000    0  440   85.00000   74.00000  12.9%     -   20s
     0     0   74.00000    0  423   85.00000   74.00000  12.9%     -   21s
     0     0   74.00000    0  418   85.00000   74.00000  12.9%     -   21s
     0     0   74.00000    0  387   85.00000   74.00000  12.9%     -   22s
     0     0   74.00000    0  152   85.00000   74.00000  12.9%     -   23s
     0     0   74.00000    0  240   85.00000   74.00000  12.9%     -   24s
H    0     0                      82.0000000   74.00000  9.76%     -   25s
     0     0   74.00000    0  185   82.00000   74.00000  9.76%     -   25s
     0     0   74.00000    0  183   82.00000   74.00000  9.76%     -   25s
     0     0   74.00000    0  216   82.00000   74.00000  9.76%     -   26s
     0     0   74.00000    0  210   82.00000   74.00000  9.76%     -   26s
     0     0   74.00000    0  218   82.00000   74.00000  9.76%     -   26s
     0     0   74.00000    0  221   82.00000   74.00000  9.76%     -   26s
     0     0   74.00000    0  256   82.00000   74.00000  9.76%     -   27s
     0     0   74.00000    0  291   82.00000   74.00000  9.76%     -   27s
     0     0   74.00000    0  296   82.00000   74.00000  9.76%     -   27s
     0     0   74.00000    0  234   82.00000   74.00000  9.76%     -   27s
     0     0   74.00000    0  179   82.00000   74.00000  9.76%     -   29s
     0     0   74.00000    0  187   82.00000   74.00000  9.76%     -   29s
     0     0   74.00000    0  233   82.00000   74.00000  9.76%     -   30s
     0     0   74.00000    0  306   82.00000   74.00000  9.76%     -   30s
     0     0   74.00000    0  305   82.00000   74.00000  9.76%     -   30s
     0     0   74.00000    0  298   82.00000   74.00000  9.76%     -   31s
     0     0   74.00000    0  179   82.00000   74.00000  9.76%     -   32s
     0     0   74.00000    0  280   82.00000   74.00000  9.76%     -   33s
     0     0   74.00000    0  255   82.00000   74.00000  9.76%     -   33s
     0     0   74.00000    0  205   82.00000   74.00000  9.76%     -   34s
     0     0   74.00000    0  197   82.00000   74.00000  9.76%     -   36s
     0     0   74.00000    0   97   82.00000   74.00000  9.76%     -   46s
     0     0   74.00000    0  109   82.00000   74.00000  9.76%     -   46s
     0     0   74.00000    0  277   82.00000   74.00000  9.76%     -   54s
     0     0   74.00000    0  262   82.00000   74.00000  9.76%     -   54s
     0     0   75.00000    0  298   82.00000   75.00000  8.54%     -   58s
     0     0   75.00000    0  346   82.00000   75.00000  8.54%     -   60s
     0     0   77.00000    0  121   82.00000   77.00000  6.10%     -   77s
     0     0   77.50000    0  173   82.00000   77.50000  5.49%     -   78s
     0     0   77.50000    0  264   82.00000   77.50000  5.49%     -   79s
     0     0   77.50000    0  297   82.00000   77.50000  5.49%     -   79s
     0     0   77.50000    0  266   82.00000   77.50000  5.49%     -   79s
     0     0   77.50000    0  295   82.00000   77.50000  5.49%     -   80s
     0     0   77.50000    0   54   82.00000   77.50000  5.49%     -   81s
     0     2   77.50000    0   29   82.00000   77.50000  5.49%     -   83s
     3     5   77.50000    2   36   82.00000   77.50000  5.49%   217   86s
    40    39   79.00000    6   30   82.00000   77.50000  5.49%   158   91s
H   62    39                      82.0000000   77.50000  5.49%   157   91s
H   97    77                      79.0000000   77.50000  1.90%   145  109s
   129    55     cutoff    9        79.00000   77.50000  1.90%   134  110s
   211     8   78.06667    9  295   79.00000   77.50000  1.90%  90.7  116s
   284    30   78.00000   15  151   79.00000   78.00000  1.27%  76.8  121s
H  287    30                      79.0000000   78.00000  1.27%  76.1  121s
   541   174     cutoff   23        79.00000   78.00000  1.27%  51.9  125s
* 1392   629              59      78.0000000   78.00000  0.00%  27.5  128s

Cutting planes:
  Learned: 2
  Gomory: 15
  Cover: 480
  Implied bound: 273
  Clique: 279
  MIR: 361
  StrongCG: 3
  Inf proof: 1
  Zero half: 2
  RLT: 169
  Relax-and-lift: 60

Explored 1529 nodes (101537 simplex iterations) in 128.87 seconds (10.94 work units)
Thread count was 32 (of 32 available processors)

Solution count 6: 78 79 79 ... 85

Optimal solution found (tolerance 1.00e-04)
Best objective 7.800000000000e+01, best bound 7.800000000000e+01, gap 0.0000%

Wrote result file 'RCPSP_807.sol'

